202 5
2 2 2 2 2
0  0 0 0 0 0  40 2 7 12 17 22 27 32 37 42 47 52 57 62 67 72 77 82 87 92 97 102 107 112 117 122 127 132 137 142 147 152 157 162 167 172 177 182 187 192 197
6  1 0 0 0 0  1 3
40  0 0 1 0 0  1 4
81  0 1 0 0 0  1 5
37  0 0 0 1 0  1 6
19  0 0 0 0 1  1 202
40  0 0 1 0 0  1 8
32  0 0 0 1 0  1 9
55  1 0 0 0 0  1 10
81  0 0 0 0 1  1 11
9  0 1 0 0 0  1 202
46  0 1 0 0 0  1 13
65  0 0 0 0 1  1 14
70  0 0 1 0 0  1 15
55  0 0 0 1 0  1 16
77  1 0 0 0 0  1 202
21  0 0 1 0 0  1 18
65  0 0 0 0 1  1 19
64  1 0 0 0 0  1 20
25  0 0 0 1 0  1 21
15  0 1 0 0 0  1 202
85  0 0 1 0 0  1 23
40  1 0 0 0 0  1 24
44  0 1 0 0 0  1 25
24  0 0 0 1 0  1 26
37  0 0 0 0 1  1 202
89  1 0 0 0 0  1 28
29  0 0 0 0 1  1 29
83  0 1 0 0 0  1 30
31  0 0 0 1 0  1 31
84  0 0 1 0 0  1 202
59  0 0 0 0 1  1 33
38  0 0 0 1 0  1 34
80  0 1 0 0 0  1 35
30  0 0 1 0 0  1 36
8  1 0 0 0 0  1 202
80  1 0 0 0 0  1 38
56  0 0 1 0 0  1 39
77  0 1 0 0 0  1 40
41  0 0 0 0 1  1 41
97  0 0 0 1 0  1 202
56  0 0 0 0 1  1 43
91  1 0 0 0 0  1 44
50  0 0 0 1 0  1 45
71  0 0 1 0 0  1 46
17  0 1 0 0 0  1 202
40  0 1 0 0 0  1 48
88  1 0 0 0 0  1 49
59  0 0 0 0 1  1 50
7  0 0 1 0 0  1 51
80  0 0 0 1 0  1 202
45  1 0 0 0 0  1 53
29  0 1 0 0 0  1 54
8  0 0 1 0 0  1 55
77  0 0 0 0 1  1 56
58  0 0 0 1 0  1 202
36  0 0 1 0 0  1 58
54  1 0 0 0 0  1 59
96  0 0 0 1 0  1 60
9  0 1 0 0 0  1 61
10  0 0 0 0 1  1 202
28  1 0 0 0 0  1 63
73  0 0 1 0 0  1 64
98  0 1 0 0 0  1 65
92  0 0 0 1 0  1 66
87  0 0 0 0 1  1 202
70  1 0 0 0 0  1 68
86  0 0 0 1 0  1 69
27  0 0 1 0 0  1 70
99  0 1 0 0 0  1 71
96  0 0 0 0 1  1 202
95  0 1 0 0 0  1 73
59  1 0 0 0 0  1 74
56  0 0 0 0 1  1 75
85  0 0 0 1 0  1 76
41  0 0 1 0 0  1 202
81  0 1 0 0 0  1 78
92  0 0 1 0 0  1 79
32  0 0 0 0 1  1 80
52  1 0 0 0 0  1 81
39  0 0 0 1 0  1 202
7  0 1 0 0 0  1 83
22  0 0 0 0 1  1 84
12  0 0 1 0 0  1 85
88  1 0 0 0 0  1 86
60  0 0 0 1 0  1 202
45  0 0 0 1 0  1 88
93  1 0 0 0 0  1 89
69  0 0 1 0 0  1 90
49  0 0 0 0 1  1 91
27  0 1 0 0 0  1 202
21  1 0 0 0 0  1 93
84  0 1 0 0 0  1 94
61  0 0 1 0 0  1 95
68  0 0 0 1 0  1 96
26  0 0 0 0 1  1 202
82  0 1 0 0 0  1 98
33  0 0 1 0 0  1 99
71  0 0 0 0 1  1 100
99  1 0 0 0 0  1 101
44  0 0 0 1 0  1 202
6  1 0 0 0 0  1 103
40  0 0 1 0 0  1 104
81  0 1 0 0 0  1 105
37  0 0 0 1 0  1 106
19  0 0 0 0 1  1 202
40  0 0 1 0 0  1 108
32  0 0 0 1 0  1 109
55  1 0 0 0 0  1 110
81  0 0 0 0 1  1 111
9  0 1 0 0 0  1 202
46  0 1 0 0 0  1 113
65  0 0 0 0 1  1 114
70  0 0 1 0 0  1 115
55  0 0 0 1 0  1 116
77  1 0 0 0 0  1 202
21  0 0 1 0 0  1 118
65  0 0 0 0 1  1 119
64  1 0 0 0 0  1 120
25  0 0 0 1 0  1 121
15  0 1 0 0 0  1 202
85  0 0 1 0 0  1 123
40  1 0 0 0 0  1 124
44  0 1 0 0 0  1 125
24  0 0 0 1 0  1 126
37  0 0 0 0 1  1 202
89  1 0 0 0 0  1 128
29  0 0 0 0 1  1 129
83  0 1 0 0 0  1 130
31  0 0 0 1 0  1 131
84  0 0 1 0 0  1 202
59  0 0 0 0 1  1 133
38  0 0 0 1 0  1 134
80  0 1 0 0 0  1 135
30  0 0 1 0 0  1 136
8  1 0 0 0 0  1 202
80  1 0 0 0 0  1 138
56  0 0 1 0 0  1 139
77  0 1 0 0 0  1 140
41  0 0 0 0 1  1 141
97  0 0 0 1 0  1 202
56  0 0 0 0 1  1 143
91  1 0 0 0 0  1 144
50  0 0 0 1 0  1 145
71  0 0 1 0 0  1 146
17  0 1 0 0 0  1 202
40  0 1 0 0 0  1 148
88  1 0 0 0 0  1 149
59  0 0 0 0 1  1 150
7  0 0 1 0 0  1 151
80  0 0 0 1 0  1 202
45  1 0 0 0 0  1 153
29  0 1 0 0 0  1 154
8  0 0 1 0 0  1 155
77  0 0 0 0 1  1 156
58  0 0 0 1 0  1 202
36  0 0 1 0 0  1 158
54  1 0 0 0 0  1 159
96  0 0 0 1 0  1 160
9  0 1 0 0 0  1 161
10  0 0 0 0 1  1 202
28  1 0 0 0 0  1 163
73  0 0 1 0 0  1 164
98  0 1 0 0 0  1 165
92  0 0 0 1 0  1 166
87  0 0 0 0 1  1 202
70  1 0 0 0 0  1 168
86  0 0 0 1 0  1 169
27  0 0 1 0 0  1 170
99  0 1 0 0 0  1 171
96  0 0 0 0 1  1 202
95  0 1 0 0 0  1 173
59  1 0 0 0 0  1 174
56  0 0 0 0 1  1 175
85  0 0 0 1 0  1 176
41  0 0 1 0 0  1 202
81  0 1 0 0 0  1 178
92  0 0 1 0 0  1 179
32  0 0 0 0 1  1 180
52  1 0 0 0 0  1 181
39  0 0 0 1 0  1 202
7  0 1 0 0 0  1 183
22  0 0 0 0 1  1 184
12  0 0 1 0 0  1 185
88  1 0 0 0 0  1 186
60  0 0 0 1 0  1 202
45  0 0 0 1 0  1 188
93  1 0 0 0 0  1 189
69  0 0 1 0 0  1 190
49  0 0 0 0 1  1 191
27  0 1 0 0 0  1 202
21  1 0 0 0 0  1 193
84  0 1 0 0 0  1 194
61  0 0 1 0 0  1 195
68  0 0 0 1 0  1 196
26  0 0 0 0 1  1 202
82  0 1 0 0 0  1 198
33  0 0 1 0 0  1 199
71  0 0 0 0 1  1 200
99  1 0 0 0 0  1 201
44  0 0 0 1 0  1 202
0  0 0 0 0 0  0
